
Gurobi 10.0.1 (linux64) logging started Thu 10 Aug 2023 02:06:32 PM CDT

Set parameter LogFile to value "/home/dlcole3/graph_abstraction/plasmoexamples/SHP_serial/SHP_reserve_requirements/gurobi_logs/logfile2.log"
Set parameter NodefileStart to value 0.0005
Set parameter TimeLimit to value 36000
Gurobi Optimizer version 10.0.1 build v10.0.1rc0 (linux64)

CPU model: Intel(R) Xeon(R) CPU E5-2698 v4 @ 2.20GHz, instruction set [SSE2|AVX|AVX2]
Thread count: 40 physical cores, 80 logical processors, using up to 4 threads


Warning: excessive time spent in model updates.
Consider calling update less frequently.

Optimize a model with 1105538 rows, 641709 columns and 4644125 nonzeros
Model fingerprint: 0x26658ff1
Variable types: 599982 continuous, 41727 integer (41727 binary)
Coefficient statistics:
  Matrix range     [5e-02, 2e+04]
  Objective range  [2e-01, 8e+04]
  Bounds range     [5e-02, 2e+04]
  RHS range        [7e-06, 7e+03]
Presolve removed 269383 rows and 115770 columns (presolve time = 5s) ...
Presolve removed 277132 rows and 116620 columns (presolve time = 10s) ...
Presolve removed 279172 rows and 124268 columns (presolve time = 15s) ...
Presolve removed 291964 rows and 124495 columns (presolve time = 20s) ...
Presolve removed 293313 rows and 125310 columns (presolve time = 25s) ...
Presolve removed 293363 rows and 125420 columns (presolve time = 30s) ...
Presolve removed 293383 rows and 125460 columns (presolve time = 35s) ...
Sparsify removed 124691 nonzeros (3%)
Presolve removed 293383 rows and 124443 columns
Presolve time: 37.50s
Presolved: 812155 rows, 517266 columns, 3870545 nonzeros
Variable types: 483852 continuous, 33414 integer (33338 binary)

Deterministic concurrent LP optimizer: primal simplex, dual simplex, and barrier
Showing barrier log only...

Root barrier log...

Elapsed ordering time = 5s
Elapsed ordering time = 10s
Elapsed ordering time = 14s
Elapsed ordering time = 15s
Elapsed ordering time = 20s
Elapsed ordering time = 23s
Elapsed ordering time = 25s
Elapsed ordering time = 30s
Elapsed ordering time = 32s
Elapsed ordering time = 35s
Elapsed ordering time = 40s
Elapsed ordering time = 41s
Elapsed ordering time = 45s
Ordering time: 48.53s

Barrier statistics:
 Dense cols : 136
 AA' NZ     : 2.267e+07
 Factor NZ  : 4.082e+08 (roughly 4.0 GB of memory)
 Factor Ops : 2.433e+12 (roughly 70 seconds per iteration)
 Threads    : 1

                  Objective                Residual
Iter       Primal          Dual         Primal    Dual     Compl     Time
   0  -2.21431846e+11 -1.80909416e+13  1.22e+04 2.03e+04  1.14e+08   171s
   1  -1.34638678e+11 -1.22944380e+13  7.67e+03 6.74e+04  6.25e+07   259s
   2  -3.14812571e+10 -6.94918239e+12  2.02e+03 1.17e+03  1.87e+07   363s
   3   1.27487954e+09 -2.55623923e+12  2.48e+02 2.72e+03  3.07e+06   478s
   4   4.21682549e+09 -7.46443010e+11  9.68e+01 2.04e+02  8.94e+05   604s
   5   5.69488125e+09 -2.42194952e+11  1.90e+01 4.95e+01  2.06e+05   760s
   6   4.17942794e+09 -5.68216770e+10  4.69e+00 1.07e+01  4.29e+04   933s
   7   1.43465479e+09 -1.95943956e+10  1.45e+00 3.84e+00  1.34e+04  1099s
   8   5.53611639e+08 -6.04107385e+09  4.92e-01 9.68e-01  4.04e+03  1181s
   9   1.06204442e+08 -5.82165658e+08  1.70e-02 5.10e-02  4.03e+02  1270s
  10   7.28838126e+07 -1.14022511e+08  7.26e-04 1.04e-02  1.09e+02  1355s
  11   5.79141728e+07  5.30036635e+06  9.42e-05 2.29e-03  3.07e+01  1450s
  12   5.24310900e+07  2.50803946e+07  4.44e-05 1.15e-03  1.59e+01  1533s
  13   4.66988040e+07  4.30521929e+07  5.98e-06 5.68e-05  2.13e+00  1626s
  14   4.59372951e+07  4.37235191e+07  3.76e-06 3.22e-05  1.29e+00  1709s
  15   4.55159302e+07  4.40636242e+07  2.57e-06 1.99e-05  8.47e-01  1792s
  16   4.48661468e+07  4.44775309e+07  8.46e-07 3.55e-06  2.27e-01  1888s
  17   4.47702291e+07  4.45323002e+07  5.61e-07 1.80e-06  1.39e-01  1968s
  18   4.46694772e+07  4.45515805e+07  2.48e-07 1.19e-06  6.87e-02  2049s
  19   4.46239729e+07  4.45733868e+07  5.25e-07 5.27e-07  2.95e-02  2149s
  20   4.45986524e+07  4.45867323e+07  5.80e-07 1.34e-07  6.95e-03  2313s
  21   4.45958571e+07  4.45903230e+07  4.78e-07 4.33e-08  3.23e-03  2450s
  22   4.45934555e+07  4.45910132e+07  2.00e-07 2.52e-08  1.42e-03  2557s
  23   4.45927859e+07  4.45915065e+07  2.50e-07 1.37e-08  7.46e-04  2678s
  24   4.45922241e+07  4.45920338e+07  2.54e-07 4.83e-09  1.11e-04  2776s
  25   4.45921837e+07  4.45920684e+07  4.71e-07 3.71e-09  6.72e-05  2877s
  26   4.45921144e+07  4.45921086e+07  3.63e-07 9.92e-09  3.40e-06  2969s
  27   4.45921121e+07  4.45921097e+07  2.51e-05 1.19e-08  6.79e-07  3053s
  28   4.45921105e+07  4.45921101e+07  3.96e-06 2.19e-08  1.47e-07  3144s
  29   4.45921098e+07  4.45921102e+07  1.12e-05 6.55e-09  6.21e-08  3239s
  30   4.45921098e+07  4.45921102e+07  1.02e-05 4.22e-09  4.54e-08  3324s

Barrier solved model in 30 iterations and 3323.58 seconds (2426.10 work units)
Optimal objective 4.45921098e+07


Root crossover log...

  327278 DPushes remaining with DInf 2.4471881e-05              3325s
   74313 DPushes remaining with DInf 6.9429095e-06              3330s
   23037 DPushes remaining with DInf 1.2544222e-04              3336s
    7077 DPushes remaining with DInf 0.0000000e+00              3341s
       0 DPushes remaining with DInf 0.0000000e+00              3345s

   20290 PPushes remaining with PInf 2.4120850e-05              3345s
   13262 PPushes remaining with PInf 1.8219927e-05              3346s
    1026 PPushes remaining with PInf 0.0000000e+00              3351s
       0 PPushes remaining with PInf 0.0000000e+00              3352s

  Push phase complete: Pinf 0.0000000e+00, Dinf 2.1637041e-02   3352s


Root simplex log...

Iteration    Objective       Primal Inf.    Dual Inf.      Time
  165522    4.4592110e+07   0.000000e+00   2.163666e-02   3353s
  165523    4.4592110e+07   0.000000e+00   0.000000e+00   3354s
  165523    4.4592110e+07   0.000000e+00   1.398204e+03   3356s
  165533    4.4592110e+07   0.000000e+00   0.000000e+00   3356s
Extra simplex iterations after uncrush: 10
Concurrent spin time: 0.00s

Solved with barrier

Root relaxation: objective 4.459211e+07, 165533 iterations, 3315.41 seconds (2414.31 work units)
Total elapsed time = 3365.23s
Total elapsed time = 3370.03s

    Nodes    |    Current Node    |     Objective Bounds      |     Work
 Expl Unexpl |  Obj  Depth IntInf | Incumbent    BestBd   Gap | It/Node Time

     0     0 4.4592e+07    0  242          - 4.4592e+07      -     - 3378s
     0     0 4.4592e+07    0  242          - 4.4592e+07      -     - 3380s
H    0     0                    4.492503e+07 4.4592e+07  0.74%     - 3391s

Explored 1 nodes (165677 simplex iterations) in 3391.32 seconds (2479.95 work units)
Thread count was 4 (of 80 available processors)

Solution count 2: 4.4925e+07 4.4925e+07 

Optimal solution found (tolerance 5.00e-02)
Best objective 4.492502782764e+07, best bound 4.459211021932e+07, gap 0.7411%

User-callback calls 27988, time in user-callback 0.05 sec
